problems/csplib-prob056/sonet-models/noch/O0/minion/model_1_1-s3ring02-solution000001.solution
language Essence 1.3

letting network be mset({}, {1, 3, 7, 8, 10}, {1, 8, 11, 12, 13}, {2, 3, 4, 9, 12}, {4, 5, 6, 7, 10}, {12}, {13})
$ Visualisation for network
$ 
$  1  3  7  8 10
$  1  8 11 12 13
$  2  3  4  9 12
$  4  5  6  7 10
$ 12
$ 13

